(declare-fun var0 () String)
(assert (RegexIn var0 (RegexConcat (RegexPlus (RegexStar (Str2Reg "CC"))) (RegexConcat (RegexPlus (RegexPlus (Str2Reg "B"))) (RegexConcat (RegexUnion (RegexPlus (Str2Reg "zz")) (RegexStar (Str2Reg "AAA"))) (RegexConcat (RegexUnion (RegexPlus (Str2Reg "x")) (RegexStar (Str2Reg "yyy"))) (RegexConcat (RegexPlus (RegexPlus (Str2Reg "www"))) (RegexConcat (RegexPlus (RegexPlus (Str2Reg "v"))) (RegexConcat (RegexUnion (RegexPlus (Str2Reg "sss")) (RegexUnion (Str2Reg "ttt") (Str2Reg "uuu"))) (RegexConcat (RegexUnion (RegexStar (Str2Reg "qq")) (RegexStar (Str2Reg "rr"))) (RegexConcat (RegexUnion (RegexStar (Str2Reg "oo")) (RegexStar (Str2Reg "pp"))) (RegexConcat (RegexUnion (RegexStar (Str2Reg "m")) (RegexStar (Str2Reg "nn"))) (RegexConcat (RegexPlus (RegexPlus (Str2Reg "l"))) (RegexConcat (RegexPlus (RegexPlus (Str2Reg "k"))) (RegexConcat (RegexStar (RegexUnion (Str2Reg "ii") (Str2Reg "jjj"))) (RegexConcat (RegexPlus (RegexPlus (Str2Reg "h"))) (RegexConcat (RegexUnion (RegexUnion (Str2Reg "ddd") (Str2Reg "ee")) (RegexUnion (Str2Reg "fff") (Str2Reg "ggg"))) (RegexConcat (RegexUnion (RegexUnion (Str2Reg "a") (Str2Reg "b")) (RegexPlus (Str2Reg "cc"))) (RegexConcat (RegexUnion (RegexStar (Str2Reg "888")) (RegexStar (Str2Reg "99"))) (RegexConcat (RegexPlus (RegexUnion (Str2Reg "66") (Str2Reg "7"))) (RegexConcat (RegexStar (RegexStar (Str2Reg "555"))) (RegexConcat (RegexStar (RegexUnion (Str2Reg "333") (Str2Reg "44"))) (RegexConcat (RegexPlus (RegexUnion (Str2Reg "1") (Str2Reg "22"))) (RegexConcat (RegexStar (RegexUnion (Str2Reg "~~~") (Str2Reg "000"))) (RegexConcat (RegexUnion (RegexStar (Str2Reg "|")) (RegexPlus (Str2Reg "}}}"))) (RegexConcat (RegexPlus (RegexPlus (Str2Reg "{"))) (RegexConcat (RegexStar (RegexStar (Str2Reg "`"))) (RegexConcat (RegexPlus (RegexPlus (Str2Reg "__"))) (RegexConcat (RegexUnion (RegexPlus (Str2Reg "\\\\")) (RegexUnion (Str2Reg "]]") (Str2Reg "^^"))) (RegexConcat (RegexUnion (RegexStar (Str2Reg "@@")) (RegexStar (Str2Reg "["))) (RegexConcat (RegexStar (RegexStar (Str2Reg "?"))) (RegexConcat (RegexUnion (RegexStar (Str2Reg "<")) (RegexUnion (Str2Reg "=") (Str2Reg ">"))) (RegexConcat (RegexStar (RegexStar (Str2Reg ";"))) (RegexConcat (RegexPlus (RegexStar (Str2Reg ":::"))) (RegexConcat (RegexUnion (RegexStar (Str2Reg "...")) (RegexPlus (Str2Reg "///"))) (RegexConcat (RegexStar (RegexPlus (Str2Reg "---"))) (RegexConcat (RegexUnion (RegexStar (Str2Reg "+")) (RegexStar (Str2Reg ","))) (RegexConcat (RegexPlus (RegexStar (Str2Reg "**"))) (RegexConcat (RegexUnion (RegexStar (Str2Reg "'''")) (RegexUnion (Str2Reg "(") (Str2Reg ")"))) (RegexConcat (RegexStar (RegexUnion (Str2Reg "%%") (Str2Reg "&&&"))) (RegexConcat (RegexPlus (RegexStar (Str2Reg "$$$"))) (RegexConcat (RegexUnion (RegexPlus (Str2Reg "!!")) (RegexUnion (Str2Reg "\"\"") (Str2Reg "#"))) (RegexConcat (RegexStar (RegexStar (Str2Reg "ZZ"))) (RegexConcat (RegexUnion (RegexStar (Str2Reg "X")) (RegexPlus (Str2Reg "YY"))) (RegexConcat (RegexUnion (RegexUnion (Str2Reg "T") (Str2Reg "UUU")) (RegexUnion (Str2Reg "VV") (Str2Reg "W"))) (RegexConcat (RegexPlus (RegexPlus (Str2Reg "S"))) (RegexConcat (RegexPlus (RegexUnion (Str2Reg "QQ") (Str2Reg "R"))) (RegexConcat (RegexPlus (RegexStar (Str2Reg "PPP"))) (RegexConcat (RegexPlus (RegexStar (Str2Reg "O"))) (RegexConcat (RegexUnion (RegexPlus (Str2Reg "L")) (RegexUnion (Str2Reg "M") (Str2Reg "NN"))) (RegexConcat (RegexStar (RegexPlus (Str2Reg "K"))) (RegexConcat (RegexStar (RegexUnion (Str2Reg "I") (Str2Reg "JJ"))) (RegexConcat (RegexStar (RegexStar (Str2Reg "HH"))) (RegexConcat (RegexStar (RegexPlus (Str2Reg "GGG"))) (RegexConcat (RegexUnion (RegexStar (Str2Reg "E")) (RegexStar (Str2Reg "FFF"))) (RegexConcat (RegexUnion (RegexStar (Str2Reg "C")) (RegexStar (Str2Reg "D"))) (RegexConcat (RegexStar (RegexStar (Str2Reg "BB"))) (RegexConcat (RegexUnion (RegexPlus (Str2Reg "zz")) (RegexStar (Str2Reg "AA"))) (RegexConcat (RegexStar (RegexStar (Str2Reg "yy"))) (RegexConcat (RegexPlus (RegexStar (Str2Reg "xx"))) (RegexConcat (RegexStar (RegexUnion (Str2Reg "vvv") (Str2Reg "ww"))) (RegexConcat (RegexPlus (RegexStar (Str2Reg "uu"))) (RegexConcat (RegexStar (RegexStar (Str2Reg "ttt"))) (RegexConcat (RegexPlus (RegexUnion (Str2Reg "rr") (Str2Reg "sss"))) (RegexConcat (RegexUnion (RegexStar (Str2Reg "ppp")) (RegexStar (Str2Reg "qq"))) (RegexConcat (RegexUnion (RegexPlus (Str2Reg "nn")) (RegexPlus (Str2Reg "oo"))) (RegexConcat (RegexUnion (RegexPlus (Str2Reg "k")) (RegexUnion (Str2Reg "lll") (Str2Reg "mm"))) (RegexConcat (RegexUnion (RegexStar (Str2Reg "hhh")) (RegexUnion (Str2Reg "iii") (Str2Reg "jjj"))) (RegexConcat (RegexUnion (RegexStar (Str2Reg "ff")) (RegexPlus (Str2Reg "ggg"))) (RegexConcat (RegexUnion (RegexUnion (Str2Reg "c") (Str2Reg "d")) (RegexPlus (Str2Reg "e"))) (RegexConcat (RegexStar (RegexUnion (Str2Reg "a") (Str2Reg "bbb"))) (RegexConcat (RegexUnion (RegexStar (Str2Reg "7")) (RegexUnion (Str2Reg "8") (Str2Reg "9"))) (RegexConcat (RegexPlus (RegexPlus (Str2Reg "6"))) (RegexConcat (RegexPlus (RegexPlus (Str2Reg "5"))) (RegexConcat (RegexStar (RegexPlus (Str2Reg "444"))) (RegexConcat (RegexPlus (RegexPlus (Str2Reg "33"))) (RegexConcat (RegexPlus (RegexUnion (Str2Reg "1") (Str2Reg "2"))) (RegexConcat (RegexStar (RegexPlus (Str2Reg "00"))) (RegexConcat (RegexUnion (RegexStar (Str2Reg "}}}")) (RegexStar (Str2Reg "~~"))) (RegexConcat (RegexPlus (RegexStar (Str2Reg "||"))) (RegexConcat (RegexUnion (RegexStar (Str2Reg "_")) (RegexUnion (Str2Reg "``") (Str2Reg "{{"))) (RegexConcat (RegexUnion (RegexStar (Str2Reg "]")) (RegexStar (Str2Reg "^^^"))) (RegexConcat (RegexUnion (RegexPlus (Str2Reg "@@@")) (RegexUnion (Str2Reg "[[[") (Str2Reg "\\\\"))) (RegexConcat (RegexStar (RegexPlus (Str2Reg "?"))) (RegexConcat (RegexPlus (RegexPlus (Str2Reg ">"))) (RegexConcat (RegexStar (RegexPlus (Str2Reg "=="))) (RegexConcat (RegexUnion (RegexUnion (Str2Reg ":") (Str2Reg ";")) (RegexStar (Str2Reg "<<<"))) (RegexConcat (RegexStar (RegexStar (Str2Reg "//"))) (RegexConcat (RegexPlus (RegexPlus (Str2Reg "."))) (RegexConcat (RegexStar (RegexPlus (Str2Reg "-"))) (RegexConcat (RegexUnion (RegexUnion (Str2Reg "***") (Str2Reg "++")) (RegexPlus (Str2Reg ",,,"))) (RegexConcat (RegexPlus (RegexPlus (Str2Reg ")"))) (RegexConcat (RegexUnion (RegexStar (Str2Reg "'")) (RegexPlus (Str2Reg "(("))) (RegexConcat (RegexStar (RegexStar (Str2Reg "&"))) (RegexConcat (RegexPlus (RegexUnion (Str2Reg "$$") (Str2Reg "%%"))) (RegexConcat (RegexStar (RegexStar (Str2Reg "###"))) (RegexConcat (RegexStar (RegexUnion (Str2Reg "!!") (Str2Reg "\"\"\""))) (RegexConcat (RegexUnion (RegexUnion (Str2Reg "W") (Str2Reg "XX")) (RegexUnion (Str2Reg "YYY") (Str2Reg "ZZ"))) (RegexConcat (RegexPlus (RegexStar (Str2Reg "VVV"))) (RegexConcat (RegexStar (RegexStar (Str2Reg "U"))) (RegexConcat (RegexStar (RegexStar (Str2Reg "T"))) (RegexConcat (RegexPlus (RegexStar (Str2Reg "SSS"))) (RegexConcat (RegexUnion (RegexStar (Str2Reg "PP")) (RegexUnion (Str2Reg "QQ") (Str2Reg "RR"))) (RegexConcat (RegexPlus (RegexStar (Str2Reg "O"))) (RegexConcat (RegexUnion (RegexUnion (Str2Reg "KK") (Str2Reg "LL")) (RegexUnion (Str2Reg "MM") (Str2Reg "N"))) (RegexConcat (RegexStar (RegexUnion (Str2Reg "III") (Str2Reg "JJ"))) (RegexConcat (RegexStar (RegexPlus (Str2Reg "HHH"))) (RegexConcat (RegexStar (RegexUnion (Str2Reg "FFF") (Str2Reg "GGG"))) (RegexConcat (RegexPlus (RegexStar (Str2Reg "EE"))) (RegexConcat (RegexStar (RegexUnion (Str2Reg "C") (Str2Reg "DDD"))) (RegexConcat (RegexUnion (RegexPlus (Str2Reg "zzz")) (RegexUnion (Str2Reg "AAA") (Str2Reg "B"))) (RegexConcat (RegexUnion (RegexUnion (Str2Reg "vv") (Str2Reg "www")) (RegexUnion (Str2Reg "xxx") (Str2Reg "yy"))) (RegexConcat (RegexUnion (RegexUnion (Str2Reg "sss") (Str2Reg "tt")) (RegexPlus (Str2Reg "u"))) (RegexConcat (RegexStar (RegexStar (Str2Reg "rr"))) (RegexConcat (RegexUnion (RegexPlus (Str2Reg "pp")) (RegexStar (Str2Reg "q"))) (RegexConcat (RegexStar (RegexUnion (Str2Reg "n") (Str2Reg "oo"))) (RegexConcat (RegexStar (RegexPlus (Str2Reg "mm"))) (RegexConcat (RegexPlus (RegexPlus (Str2Reg "l"))) (RegexConcat (RegexStar (RegexPlus (Str2Reg "k"))) (RegexConcat (RegexStar (RegexPlus (Str2Reg "jj"))) (RegexConcat (RegexStar (RegexUnion (Str2Reg "hh") (Str2Reg "ii"))) (RegexConcat (RegexUnion (RegexStar (Str2Reg "ee")) (RegexUnion (Str2Reg "ff") (Str2Reg "g"))) (RegexConcat (RegexStar (RegexStar (Str2Reg "d"))) (RegexConcat (RegexStar (RegexUnion (Str2Reg "bb") (Str2Reg "ccc"))) (RegexConcat (RegexPlus (RegexUnion (Str2Reg "9") (Str2Reg "aa"))) (RegexConcat (RegexPlus (RegexUnion (Str2Reg "777") (Str2Reg "888"))) (RegexConcat (RegexUnion (RegexUnion (Str2Reg "3") (Str2Reg "44")) (RegexUnion (Str2Reg "555") (Str2Reg "66"))) (RegexConcat (RegexStar (RegexStar (Str2Reg "22"))) (RegexStar (RegexUnion (Str2Reg "000") (Str2Reg "11")))))))))))))))))))))))))))))))))))))))))))))))))))))))))))))))))))))))))))))))))))))))))))))))))))))))))))))))))))))))))))))))))))
(check-sat)